12      4       
16      14      11      11      
0       0       0       0       0       3       2       3       4       
9       0       8       0       2       2       5       7       
3       0       0       9       0       3       6       9       10      
4       0       0       0       6       2       10      11      
1       2       0       0       2       2       8       10      
9       0       0       9       7       1       7       
8       9       7       1       0       1       11      
6       5       10      0       5       1       9       
10      0       10      0       3       1       12      
8       8       0       4       0       1       12      
4       0       7       0       7       1       12      
0       0       0       0       0       0       